NAME : KROD99A.25392.tour
COMMENT : Cost = 0_25392
COMMENT : Found by LKH [Keld Helsgaun] Sun Sep 17 16:52:41 2017
TYPE : TOUR
DIMENSION : 99
TOUR_SECTION
1
13
24
27
80
34
38
65
8
51
45
73
7
74
66
36
29
57
88
69
48
97
96
32
93
17
89
11
22
23
60
68
62
53
90
76
70
92
4
43
59
52
5
3
82
6
18
84
63
58
40
25
20
10
9
54
91
50
99
30
35
61
37
19
2
47
86
26
94
55
21
28
12
46
81
14
67
33
44
98
77
79
75
71
56
31
64
85
95
16
42
39
72
15
83
41
87
78
49
-1
EOF
